202546
27,43,26,86,0,75,82,33,67,49,98,50,102,60,13,25,56,79,73,101,88,92,91,105,18,41,80,8,22,11,7,96,4,29,28,54,51,64,12,97,68,87,30,19,15,16,63,89,45,5,55,39,76,20,21,38,48,6,52,83,32,1,72,84,37,104,95,59,77,2,93,69,100,35,70,53,47,36,17,94,66,40,10,103,61,71,99,81,44,85,24,34,74,62,31,14,3,46,23,78,42,90,57,58,65,9